Comps = {frontend0, frontend1, backend0, backend1, database0, database1};
mustComps = {frontend0, frontend1};
Flavs = {tiny, medium, large};
Nodes = {n1, n2, n3, n4};
CRes = {CPU, RAM, storage, bwIn, bwOut};
NRes = {ssl, fwall, encr, avail, latency};
Flav = [{medium, large}, {medium, large}, {tiny, medium, large}, {tiny, medium, large}, {large}, {large}];
Uses = array2d(CompFlavs, CompFlavs, [
	0,0,0,0,0,0,0,1,0,0,0,0,
	0,0,0,0,0,0,0,1,0,0,0,0,
	0,0,0,0,1,0,0,0,0,0,0,0,
	0,0,0,0,1,0,0,0,0,0,0,0,
	0,0,0,0,0,0,0,0,0,0,0,0,
	0,0,0,0,0,0,0,0,0,1,0,0,
	0,0,0,0,0,0,0,0,0,1,0,0,
	0,0,0,0,0,0,0,0,0,0,0,0,
	0,0,0,0,0,0,1,0,0,0,0,0,
	0,0,0,0,0,0,1,0,0,0,0,0,
	0,0,0,0,0,0,0,0,0,0,0,0,
	0,0,0,0,0,0,0,0,0,0,0,0,
]);
mayUse = array2d(Comps, CompFlavs, [
	0,0,0,0,0,0,0,0,0,0,0,0,
	0,0,0,0,0,0,0,0,0,0,0,0,
	0,0,1,1,0,0,0,0,1,1,0,0,
	1,1,0,0,0,1,1,0,0,0,0,0,
	0,0,0,0,0,0,0,0,0,0,0,0,
	0,0,0,0,0,0,0,0,0,0,0,0,
]);
MIN_RBOUNDS = 0;
MAX_RBOUNDS = 1000000;

worstBounds = [0, 0, 0, 0, 0, 0, 0, 0, 0, MAX_RBOUNDS];
bestBounds = [MAX_RBOUNDS - i | i in worstBounds];

comReq = array2d(CompFlavs, Res, [
  2, 314, 369, 301, 406, 0, 1, 1, 95, MAX_RBOUNDS,
  4, 438, 250, 750, 477, 1, 1, 1, 95, MAX_RBOUNDS,
  2, 354, 428, 490, 536, 1, 0, 1, 97, MAX_RBOUNDS,
  8, 303, 475, 971, 571, 1, 0, 0, 96, MAX_RBOUNDS,
  2, 311, 327, 668, 670, 1, 0, 1, 96, MAX_RBOUNDS,
  4, 251, 460, 281, 883, 1, 1, 0, 95, MAX_RBOUNDS,
  2, 275, 261, 685, 516, 0, 1, 1, 96, MAX_RBOUNDS,
  2, 497, 472, 364, 634, 1, 1, 0, 95, MAX_RBOUNDS,
  2, 364, 229, 516, 917, 0, 1, 0, 96, MAX_RBOUNDS,
  2, 474, 398, 738, 509, 1, 1, 0, 96, MAX_RBOUNDS,
  2, 282, 218, 531, 775, 1, 1, 0, 96, MAX_RBOUNDS,
  2, 429, 259, 635, 690, 0, 0, 1, 97, MAX_RBOUNDS,
]);

nodeCap = array2d(Nodes0, Res, [bestBounds[r] | r in Res] ++ [
  16, 114053, 649424, 19872, 15561, 1, 0, 1, 99, 0,
  32, 88250, 457938, 19394, 18445, 1, 1, 1, 99, 0,
  32, 40200, 712322, 14029, 24090, 1, 1, 1, 99, 0,
  32, 80709, 768565, 15443, 17939, 1, 1, 1, 99, 0,
]);

cost = array2d(Nodes0, Res, [
  0, 0, 0, 0, 0, 0, 0, 0, 0, 0, % no node
  12, 6, 17, 0, 0, 0, 0, 0, 0, 0,
  18, 10, 20, 0, 0, 0, 0, 0, 0, 0,
  17, 8, 19, 0, 0, 0, 0, 0, 0, 0,
  14, 8, 15, 0, 0, 0, 0, 0, 0, 0,
]);

carb = array2d(Nodes0, Res, [
  0, 0, 0, 0, 0, 0, 0, 0, 0, 0, % no node
  28, 8, 40, 0, 0, 0, 0, 0, 0, 0,
  33, 28, 48, 0, 0, 0, 0, 0, 0, 0,
  32, 29, 6, 0, 0, 0, 0, 0, 0, 0,
  29, 34, 6, 0, 0, 0, 0, 0, 0, 0,
]);

costBudget = 51893;
carbBudget = 44599;

depReq = array4d(Comps, Flavs, Comps, Res, [
  if c1 = frontend0 /\ c2 = backend0 /\ r = N(avail) then
    97
  elseif c1 = frontend0 /\ c2 = backend1 /\ r = N(avail) then
    97
  elseif c1 = frontend1 /\ c2 = backend1 /\ r = N(avail) then
    97
  elseif c1 = frontend1 /\ c2 = backend0 /\ r = N(avail) then
    97
  else
    worstBounds[r]
  endif | c1 in Comps, i in Flavs, c2 in Comps, r in Res]);

linkCap = array3d(Nodes0, Nodes0, Res, [
  if ni = 0 \/ nj = 0 then
    bestBounds[r]
  elseif ni = nj /\ r = N(avail) then
    nodeCap[ni,r]
  elseif {ni, nj} = {n1, n2} /\ r = N(avail) then
    98
  elseif {ni, nj} = {n2, n4} /\ r = N(avail) then
    99
  elseif {ni, nj} = {n1, n4} /\ r = N(avail) then
    98
  elseif {ni, nj} = {n2, n3} /\ r = N(avail) then
    98
  elseif {ni, nj} = {n1, n3} /\ r = N(avail) then
    99
  elseif {ni, nj} = {n3, n4} /\ r = N(avail) then
    99
  else
    worstBounds[r]
  endif | ni in Nodes0, nj in Nodes0, r in Res]);

imp = array2d(Comps, Flavs, [
  2, 6, 7,
  3, 8, 9,
  5, 7, 8,
  3, 7, 9,
  3, 7, 8,
  5, 7, 9,
]);

